units metal
atom_style atomic
pair_style sw
read_data crystal_builder.data

pair_coeff * * /usr/local/lib/python3.10/site-packages/alamode/alamode/example/Si_LAMMPS/Si.sw Si
dump 1 all custom 1000 crystal_builder.custom.gz id xu yu zu
dump_modify 1 sort id
min_style fire
minimize 1.0e-6 1.0e-8 1000000 10000000

timestep 0.001
thermo_modify flush yes
thermo 1000
velocity all create 10 985773
fix 2a all nve
run 1000
unfix 2a

quit 0
