units real
atom_style full
bond_style harmonic
angle_style harmonic
dihedral_style opls
improper_style cvff
pair_style lj/cut/coul/long 11.0 11.0
pair_modify mix geometric
special_bonds lj/coul 0 0 0.5 
kspace_style pppm 0.0001
log log.polymer_builder
read_data polymer_builder.data
dump 1 all custom 1000 dump.custom id xu yu zu
dump_modify 1 sort id
min_style fire
minimize 1.0e-6 1.0e-8 10000 100000
timestep 1
thermo_modify flush yes
thermo 1000
fix rigid all shake 0.0001 10 10000 b 1 a 1
velocity all create 10.0 482748
fix 1 all nvt temp 10.0 10.0 100
run 20000
unfix 1
fix 1 all npt temp 10.0 10.0 100 iso 1 1 1000
run 10000
unfix 1
fix 1 all npt temp 10.0 306.0 100 iso 1 1 1000
run 10000
unfix 1
fix 1 all npt temp 306.0 306.0 100 iso 1 1 1000
run 50000
unfix 1
fix 1 all nve
run 50000
unfix 1
