units real
atom_style full
bond_style harmonic
angle_style harmonic
dihedral_style opls
improper_style cvff
special_bonds lj/coul 0 0 0.5
pair_style lj/cut/coul/long 11.0
pair_modify mix geometric
kspace_style pppm 0.0001
read_data amorp_bldr.data
dump 1 all xtc 1000 amorp_bldr.xtc
dump_modify 1 unwrap yes
thermo 1000
thermo_modify flush yes
timestep 1.0
min_style fire
minimize 1.0e-6 1.0e-8 1000000 10000000
fix rigid all shake 0.0001 10 10000 b 1 a 1
velocity all create 300 621781179
fix 0a all temp/berendsen 300 300 100
fix 0b all nve
run 1000000
unfix 0a
unfix 0b

write_restart amorp_bldr.rst
