### INITIALIZATION ###
units        real
processors * 1 1

atom_style	 full                                       
pair_style	 lj/class2/coul/cut 10.0 10.0                          
pair_modify  mix sixthpower                                        
bond_style   morse                                               
#angle_style  class2             
angle_style quartic                                  
dihedral_style multi/harmonic                                             
#improper_style class2                                             
read_data	./data.lammps

region fix1  block $(xlo) $(xlo+6)    INF INF INF INF units box         
region fix2  block $(xhi-6) $(xhi)    INF INF INF INF units box
region rqin  block $(xlo+6) $(xlo+30) INF INF INF INF units box
region rqout block $(xhi-30) $(xhi-6) INF INF INF INF units box
region rfree block $(xlo+6) $(xhi-6) INF INF INF INF units box  

group qin region rqin
group qout region rqout
group gfree region rfree

dump 1 all atom 1000000 vmd.atom
dump_modify 1 sort id
dump 2 all xyz 1000000 vmd.xyz  
dump_modify 2 element  C

change_box all x scale 1.05 remap 

fix 13 all box/relax x 0.0 
minimize 1.0e-8 1.0e-8 10000 10000000
unfix 13

restart 100000 rstrt_1 rstrt_2
### SETTINGS ###
neighbor    2.5 bin
neigh_modify	delay 0 every 50 check no   

timestep 0.25 
thermo		1000                                                                                  
thermo_modify flush yes  
                                                                                      
fix 		NPT all npt temp 0.1 0.1 25  x 0 0 2500                            
run 	1000000                                                    
#run     1000
unfix         NPT  

# ------------- Equilibration and thermalisation ---------------- 
velocity    gfree create 300.0 4928459                                                                  
fix 		NVT gfree nvt temp 300.00 300.00 25                              
run 	1000000                                                    
#run     1000
unfix         NVT                                                 
                                                                  
# --------------- Equilibration in nve -----------------          
                                                                  
fix 		NVE gfree nve                                               
run 		100000                                                    
#run             1000

# --------------- Fix Heat ----------------- 

compute   ke all ke/atom
variable  temp atom c_ke/0.003
#fix       3 all ave/spatial 1 20000 20000 x lower 2.5 v_temp file tmp.profile units box
compute cc1 all chunk/atom bin/1d x lower 2.5 units box

fix 3 all ave/chunk 1 20000 20000 cc1 v_temp file tmp.profile #units box

fix 7 qin langevin 315.0 315.0 50.0 123456 tally yes
fix 8 qout langevin 285.0 285.0 50.0 123457 tally yes

log en_ex.log

thermo 1000
thermo_style custom step temp f_7 f_8 
thermo_modify flush yes

run       400000000
