units metal
atom_style atomic
pair_style sw
read_data dispersion.data

pair_coeff * * /Users/zhteg4/git/nemd/module/lammps/lammps/potentials/Si.sw Si
dump 1 all custom 1000 dispersion.custom id xu yu zu fx fy fz
dump_modify 1 format float '%20.15f'
run 0
quit 0
