units real
atom_style full
bond_style harmonic
angle_style harmonic
dihedral_style opls
improper_style cvff
special_bonds lj/coul 0 0 0.5
pair_style lj/cut 11.0
pair_modify mix geometric
read_data mol_bldr.data
dump 1 all xtc 1000 mol_bldr.xtc
dump_modify 1 unwrap yes
thermo 1000
thermo_modify flush yes
fix rest all restrain dihedral 1 2 3 4 -2000.0 -2000.0 120.0
min_style fire
minimize 1.0e-6 1.0e-8 1000000 10000000
unfix rest
run 0
write_restart mol_bldr.rst
quit 0
