units metal
atom_style atomic
pair_style sw
read_data crystal_builder.data

pair_coeff * * /Users/zhteg4/git/nemd/module/lammps/lammps/potentials/Si.sw Si
dump 1 all custom 1000 crystal_builder.custom.gz id xu yu zu
dump_modify 1 sort id
min_style fire
minimize 1.0e-6 1.0e-8 1000000 10000000

timestep 0.001
thermo_modify flush yes
thermo 1000
run 0
quit 0
