units real
atom_style full
bond_style harmonic
angle_style harmonic
dihedral_style opls
improper_style cvff
special_bonds lj/coul 0 0 0.5
pair_style lj/cut 11.0
pair_modify mix geometric
read_data amorp_bldr.data

dump 1 all custom 1000 amorp_bldr.custom.gz id xu yu zu
dump_modify 1 sort id
min_style fire
minimize 1.0e-6 1.0e-8 1000000 10000000

timestep 1.0
thermo_modify flush yes
thermo 1000
velocity all create 300 1062307197
fix 2a all temp/berendsen 300 300 100
fix 2b all nve
run 5000
unfix 2b
unfix 2a

quit 0
